<?xml version="1.0" encoding="UTF-8"?><osil xmlns="os.optimizationservices.org"   xmlns:xsi="http://www.w3.org/2001/XMLSchema-instance" xsi:schemaLocation="os.optimizationservices.org http://www.optimizationservices.org/schemas/2.0/OSiL.xsd" ><instanceHeader><name>q_20_4_25_2</name></instanceHeader><instanceData><variables numberOfVariables="20"><var name="x1" ub="1"/><var name="x2" ub="1"/><var name="x3" ub="1"/><var name="x4" ub="1"/><var name="x5" ub="1"/><var name="x6" ub="1"/><var name="x7" ub="1"/><var name="x8" ub="1"/><var name="x9" ub="1"/><var name="x10" ub="1"/><var name="x11" ub="1"/><var name="x12" ub="1"/><var name="x13" ub="1"/><var name="x14" ub="1"/><var name="x15" ub="1"/><var name="x16" ub="1"/><var name="x17" ub="1"/><var name="x18" ub="1"/><var name="x19" ub="1"/><var name="x20" ub="1"/></variables><objectives numberOfObjectives="1"><obj maxOrMin="min" name="defObj_x21" numberOfObjCoef="20"><coef idx="0">-.8113</coef><coef idx="1">.3038</coef><coef idx="2">.8093</coef><coef idx="3">.5277</coef><coef idx="4">.7849</coef><coef idx="5">.6706</coef><coef idx="6">1.52e-2</coef><coef idx="7">-9.e-3</coef><coef idx="8">8.2e-3</coef><coef idx="9">.5372</coef><coef idx="10">-.2333</coef><coef idx="11">-.8164</coef><coef idx="12">.8521</coef><coef idx="13">.4163</coef><coef idx="14">.6625</coef><coef idx="15">.6022</coef><coef idx="16">.1782</coef><coef idx="17">.63</coef><coef idx="18">.4385</coef><coef idx="19">.9963</coef></obj></objectives><constraints numberOfConstraints="4"><con name="e2" ub="88.419"/><con name="e3" ub="65.88"/><con name="e4" ub="1.1e-2"/><con name="e5" ub="75.549"/></constraints><linearConstraintCoefficients numberOfValues="80"><start><el mult="5" incr="20">0</el></start><colIdx><el mult="20" incr="1">0</el><el mult="20" incr="1">0</el><el mult="20" incr="1">0</el><el mult="20" incr="1">0</el></colIdx><value><el>-3.7e-3</el><el>-.4974</el><el>-.1368</el><el>-.663</el><el>-.3471</el><el>-.9665</el><el>-.6331</el><el>-9.98e-2</el><el>.9348</el><el>-.5585</el><el>-.1588</el><el>.3535</el><el>-.5013</el><el>.5619</el><el>.6594</el><el>-.6765</el><el>.8412</el><el>-.6171</el><el>.5953</el><el>.9679</el><el>1.04e-2</el><el>-.6145</el><el>.3569</el><el>-8.35e-2</el><el>-.1778</el><el>.1688</el><el>-.6302</el><el>5.73e-2</el><el>.8851</el><el>.9515</el><el>-6.04e-2</el><el>-.8915</el><el>-9.68e-2</el><el>-.5954</el><el>-.902</el><el>.9315</el><el>.4294</el><el>.7398</el><el>-.6759</el><el>-1.66e-2</el><el>.9241</el><el>.9873</el><el>.5992</el><el>.8133</el><el>.4239</el><el>-.1981</el><el>.5006</el><el>-.5385</el><el>.1593</el><el>-8.71e-2</el><el>-.9382</el><el>-1.48e-2</el><el>-.4904</el><el>.5096</el><el>-.4809</el><el>-.4848</el><el>.3062</el><el>.9318</el><el>-.1853</el><el>.5946</el><el>-.357</el><el>-.2066</el><el>-.1247</el><el>-.9086</el><el>-.4053</el><el>-.6526</el><el>-.7753</el><el>.6139</el><el>6.06e-2</el><el>-.4917</el><el>.82</el><el>-.8487</el><el>-.4958</el><el>-.4949</el><el>.7862</el><el>.7091</el><el>-.6288</el><el>.7083</el><el>.4814</el><el>.1703</el></value></linearConstraintCoefficients><quadraticCoefficients  numberOfQuadraticTerms="260" ><qTerm  idx="-1"  idxOne="0"  idxTwo="4"  coef="1.2871"/><qTerm  idx="-1"  idxOne="0"  idxTwo="11"  coef="-.8953"/><qTerm  idx="-1"  idxOne="0"  idxTwo="13"  coef="-1.2742"/><qTerm  idx="-1"  idxOne="1"  idxTwo="1"  coef="1.3248"/><qTerm  idx="-1"  idxOne="1"  idxTwo="2"  coef="-1.0415"/><qTerm  idx="-1"  idxOne="1"  idxTwo="3"  coef=".9667"/><qTerm  idx="-1"  idxOne="1"  idxTwo="4"  coef="-.1849"/><qTerm  idx="-1"  idxOne="1"  idxTwo="5"  coef="1.6306"/><qTerm  idx="-1"  idxOne="1"  idxTwo="7"  coef="-.964"/><qTerm  idx="-1"  idxOne="1"  idxTwo="8"  coef="-.5246"/><qTerm  idx="-1"  idxOne="1"  idxTwo="9"  coef="1.0674"/><qTerm  idx="-1"  idxOne="1"  idxTwo="10"  coef="1.963"/><qTerm  idx="-1"  idxOne="1"  idxTwo="16"  coef="-1.1491"/><qTerm  idx="-1"  idxOne="2"  idxTwo="5"  coef="-.1184"/><qTerm  idx="-1"  idxOne="2"  idxTwo="10"  coef="-.4162"/><qTerm  idx="-1"  idxOne="2"  idxTwo="16"  coef="-.5624"/><qTerm  idx="-1"  idxOne="2"  idxTwo="18"  coef=".5878"/><qTerm  idx="-1"  idxOne="3"  idxTwo="7"  coef=".4155"/><qTerm  idx="-1"  idxOne="3"  idxTwo="8"  coef="-.5919"/><qTerm  idx="-1"  idxOne="3"  idxTwo="11"  coef="1.1935"/><qTerm  idx="-1"  idxOne="3"  idxTwo="13"  coef="-.2344"/><qTerm  idx="-1"  idxOne="3"  idxTwo="16"  coef="1.4148"/><qTerm  idx="-1"  idxOne="4"  idxTwo="8"  coef="-.42"/><qTerm  idx="-1"  idxOne="4"  idxTwo="16"  coef="1.8633"/><qTerm  idx="-1"  idxOne="4"  idxTwo="17"  coef="-.5642"/><qTerm  idx="-1"  idxOne="4"  idxTwo="18"  coef=".8765"/><qTerm  idx="-1"  idxOne="5"  idxTwo="5"  coef=".5145"/><qTerm  idx="-1"  idxOne="5"  idxTwo="6"  coef="-1.1965"/><qTerm  idx="-1"  idxOne="5"  idxTwo="13"  coef=".3559"/><qTerm  idx="-1"  idxOne="5"  idxTwo="14"  coef="-.2564"/><qTerm  idx="-1"  idxOne="5"  idxTwo="19"  coef="-4.35e-2"/><qTerm  idx="-1"  idxOne="6"  idxTwo="11"  coef="1.9663"/><qTerm  idx="-1"  idxOne="6"  idxTwo="14"  coef="-.914"/><qTerm  idx="-1"  idxOne="6"  idxTwo="15"  coef=".3176"/><qTerm  idx="-1"  idxOne="7"  idxTwo="12"  coef=".711"/><qTerm  idx="-1"  idxOne="8"  idxTwo="8"  coef=".5944"/><qTerm  idx="-1"  idxOne="8"  idxTwo="12"  coef="-1.651"/><qTerm  idx="-1"  idxOne="8"  idxTwo="13"  coef="-.9838"/><qTerm  idx="-1"  idxOne="9"  idxTwo="11"  coef=".4257"/><qTerm  idx="-1"  idxOne="9"  idxTwo="12"  coef=".732"/><qTerm  idx="-1"  idxOne="9"  idxTwo="15"  coef="-.1848"/><qTerm  idx="-1"  idxOne="9"  idxTwo="17"  coef=".5944"/><qTerm  idx="-1"  idxOne="9"  idxTwo="18"  coef="-1.5456"/><qTerm  idx="-1"  idxOne="10"  idxTwo="10"  coef="-1.8758"/><qTerm  idx="-1"  idxOne="10"  idxTwo="12"  coef="-1.2626"/><qTerm  idx="-1"  idxOne="10"  idxTwo="13"  coef="-1.5307"/><qTerm  idx="-1"  idxOne="10"  idxTwo="16"  coef="-.3621"/><qTerm  idx="-1"  idxOne="11"  idxTwo="12"  coef="-.6273"/><qTerm  idx="-1"  idxOne="11"  idxTwo="16"  coef="9.26e-2"/><qTerm  idx="-1"  idxOne="14"  idxTwo="15"  coef="1.9721"/><qTerm  idx="-1"  idxOne="15"  idxTwo="17"  coef="1.5207"/><qTerm  idx="-1"  idxOne="16"  idxTwo="17"  coef="6.16e-2"/><qTerm  idx="0"  idxOne="0"  idxTwo="2"  coef="-.6637"/><qTerm  idx="0"  idxOne="0"  idxTwo="3"  coef="1.4969"/><qTerm  idx="0"  idxOne="0"  idxTwo="9"  coef="-1.0729"/><qTerm  idx="0"  idxOne="1"  idxTwo="3"  coef="-.1447"/><qTerm  idx="0"  idxOne="1"  idxTwo="5"  coef="-.9224"/><qTerm  idx="0"  idxOne="1"  idxTwo="16"  coef=".2876"/><qTerm  idx="0"  idxOne="1"  idxTwo="17"  coef="-1.9282"/><qTerm  idx="0"  idxOne="1"  idxTwo="18"  coef="1.4121"/><qTerm  idx="0"  idxOne="2"  idxTwo="4"  coef="1.3342"/><qTerm  idx="0"  idxOne="2"  idxTwo="5"  coef="-1.983"/><qTerm  idx="0"  idxOne="2"  idxTwo="9"  coef="-1.2019"/><qTerm  idx="0"  idxOne="2"  idxTwo="11"  coef=".4809"/><qTerm  idx="0"  idxOne="2"  idxTwo="18"  coef=".8061"/><qTerm  idx="0"  idxOne="2"  idxTwo="19"  coef=".5431"/><qTerm  idx="0"  idxOne="3"  idxTwo="4"  coef=".4144"/><qTerm  idx="0"  idxOne="3"  idxTwo="16"  coef=".994"/><qTerm  idx="0"  idxOne="3"  idxTwo="18"  coef="-.6546"/><qTerm  idx="0"  idxOne="3"  idxTwo="19"  coef="-1.5013"/><qTerm  idx="0"  idxOne="4"  idxTwo="6"  coef="-.4681"/><qTerm  idx="0"  idxOne="4"  idxTwo="9"  coef=".6107"/><qTerm  idx="0"  idxOne="4"  idxTwo="15"  coef="-5.7e-2"/><qTerm  idx="0"  idxOne="5"  idxTwo="9"  coef="-1.6895"/><qTerm  idx="0"  idxOne="5"  idxTwo="11"  coef="-1.8722"/><qTerm  idx="0"  idxOne="5"  idxTwo="17"  coef="1.175"/><qTerm  idx="0"  idxOne="6"  idxTwo="10"  coef="-.4765"/><qTerm  idx="0"  idxOne="6"  idxTwo="15"  coef=".8778"/><qTerm  idx="0"  idxOne="6"  idxTwo="18"  coef="-1.1278"/><qTerm  idx="0"  idxOne="7"  idxTwo="8"  coef="1.6251"/><qTerm  idx="0"  idxOne="7"  idxTwo="10"  coef=".6911"/><qTerm  idx="0"  idxOne="8"  idxTwo="9"  coef="-1.9009"/><qTerm  idx="0"  idxOne="8"  idxTwo="15"  coef="-.2845"/><qTerm  idx="0"  idxOne="9"  idxTwo="9"  coef="-1.6941"/><qTerm  idx="0"  idxOne="9"  idxTwo="10"  coef="-1.3755"/><qTerm  idx="0"  idxOne="9"  idxTwo="14"  coef=".4721"/><qTerm  idx="0"  idxOne="9"  idxTwo="15"  coef="1.9514"/><qTerm  idx="0"  idxOne="9"  idxTwo="17"  coef="-1.3761"/><qTerm  idx="0"  idxOne="9"  idxTwo="18"  coef="-.4616"/><qTerm  idx="0"  idxOne="10"  idxTwo="14"  coef="-.7417"/><qTerm  idx="0"  idxOne="11"  idxTwo="15"  coef="-1.95e-2"/><qTerm  idx="0"  idxOne="11"  idxTwo="16"  coef="1.7735"/><qTerm  idx="0"  idxOne="12"  idxTwo="13"  coef="-1.9912"/><qTerm  idx="0"  idxOne="12"  idxTwo="17"  coef="1.0452"/><qTerm  idx="0"  idxOne="13"  idxTwo="14"  coef="-1.0141"/><qTerm  idx="0"  idxOne="13"  idxTwo="16"  coef="-.8118"/><qTerm  idx="0"  idxOne="13"  idxTwo="17"  coef="-.3494"/><qTerm  idx="0"  idxOne="13"  idxTwo="18"  coef=".8835"/><qTerm  idx="0"  idxOne="14"  idxTwo="16"  coef="-1.3037"/><qTerm  idx="0"  idxOne="14"  idxTwo="18"  coef="1.8712"/><qTerm  idx="0"  idxOne="14"  idxTwo="19"  coef="-.8121"/><qTerm  idx="0"  idxOne="15"  idxTwo="17"  coef="-7.64e-2"/><qTerm  idx="0"  idxOne="17"  idxTwo="18"  coef=".2259"/><qTerm  idx="0"  idxOne="18"  idxTwo="18"  coef="-1.5161"/><qTerm  idx="1"  idxOne="0"  idxTwo="4"  coef="1.5971"/><qTerm  idx="1"  idxOne="0"  idxTwo="8"  coef=".2896"/><qTerm  idx="1"  idxOne="0"  idxTwo="17"  coef="1.328"/><qTerm  idx="1"  idxOne="1"  idxTwo="1"  coef=".327"/><qTerm  idx="1"  idxOne="1"  idxTwo="3"  coef="-.1663"/><qTerm  idx="1"  idxOne="1"  idxTwo="8"  coef="-1.007"/><qTerm  idx="1"  idxOne="1"  idxTwo="9"  coef="1.6463"/><qTerm  idx="1"  idxOne="1"  idxTwo="13"  coef="-.1286"/><qTerm  idx="1"  idxOne="1"  idxTwo="17"  coef="-5.95e-2"/><qTerm  idx="1"  idxOne="1"  idxTwo="18"  coef="-1.1592"/><qTerm  idx="1"  idxOne="2"  idxTwo="3"  coef=".6122"/><qTerm  idx="1"  idxOne="2"  idxTwo="4"  coef="-.6379"/><qTerm  idx="1"  idxOne="2"  idxTwo="7"  coef="1.9924"/><qTerm  idx="1"  idxOne="2"  idxTwo="8"  coef="1.831"/><qTerm  idx="1"  idxOne="2"  idxTwo="11"  coef="-1.0454"/><qTerm  idx="1"  idxOne="2"  idxTwo="17"  coef=".7138"/><qTerm  idx="1"  idxOne="3"  idxTwo="9"  coef=".388"/><qTerm  idx="1"  idxOne="3"  idxTwo="12"  coef="-.7374"/><qTerm  idx="1"  idxOne="3"  idxTwo="15"  coef=".8911"/><qTerm  idx="1"  idxOne="4"  idxTwo="5"  coef="-.2319"/><qTerm  idx="1"  idxOne="4"  idxTwo="7"  coef="-1.598"/><qTerm  idx="1"  idxOne="4"  idxTwo="12"  coef="1.6647"/><qTerm  idx="1"  idxOne="5"  idxTwo="13"  coef=".9576"/><qTerm  idx="1"  idxOne="6"  idxTwo="11"  coef="-.7583"/><qTerm  idx="1"  idxOne="6"  idxTwo="14"  coef=".3628"/><qTerm  idx="1"  idxOne="6"  idxTwo="19"  coef="-1.7606"/><qTerm  idx="1"  idxOne="7"  idxTwo="10"  coef="-1.6463"/><qTerm  idx="1"  idxOne="7"  idxTwo="12"  coef="-1.0522"/><qTerm  idx="1"  idxOne="7"  idxTwo="14"  coef="-.8122"/><qTerm  idx="1"  idxOne="7"  idxTwo="17"  coef="-1.3906"/><qTerm  idx="1"  idxOne="8"  idxTwo="11"  coef="-1.5988"/><qTerm  idx="1"  idxOne="8"  idxTwo="12"  coef="1.209"/><qTerm  idx="1"  idxOne="8"  idxTwo="15"  coef="-.6655"/><qTerm  idx="1"  idxOne="8"  idxTwo="16"  coef="-1.9038"/><qTerm  idx="1"  idxOne="8"  idxTwo="19"  coef=".9673"/><qTerm  idx="1"  idxOne="10"  idxTwo="11"  coef=".4996"/><qTerm  idx="1"  idxOne="10"  idxTwo="13"  coef=".5374"/><qTerm  idx="1"  idxOne="10"  idxTwo="17"  coef="-1.7501"/><qTerm  idx="1"  idxOne="10"  idxTwo="18"  coef=".9771"/><qTerm  idx="1"  idxOne="11"  idxTwo="11"  coef="-.4576"/><qTerm  idx="1"  idxOne="11"  idxTwo="13"  coef=".7462"/><qTerm  idx="1"  idxOne="11"  idxTwo="14"  coef="-.3494"/><qTerm  idx="1"  idxOne="11"  idxTwo="19"  coef="-1.1394"/><qTerm  idx="1"  idxOne="12"  idxTwo="12"  coef="-1.0033"/><qTerm  idx="1"  idxOne="12"  idxTwo="17"  coef="-.1191"/><qTerm  idx="1"  idxOne="13"  idxTwo="15"  coef="1.247"/><qTerm  idx="1"  idxOne="14"  idxTwo="14"  coef="-1.6191"/><qTerm  idx="1"  idxOne="14"  idxTwo="16"  coef=".8143"/><qTerm  idx="1"  idxOne="17"  idxTwo="17"  coef="8.03e-2"/><qTerm  idx="1"  idxOne="17"  idxTwo="18"  coef=".8768"/><qTerm  idx="1"  idxOne="18"  idxTwo="18"  coef=".9388"/><qTerm  idx="1"  idxOne="18"  idxTwo="19"  coef="5.28e-2"/><qTerm  idx="2"  idxOne="0"  idxTwo="6"  coef="1.6355"/><qTerm  idx="2"  idxOne="0"  idxTwo="10"  coef="-.6342"/><qTerm  idx="2"  idxOne="0"  idxTwo="16"  coef=".288"/><qTerm  idx="2"  idxOne="1"  idxTwo="3"  coef="-.4357"/><qTerm  idx="2"  idxOne="1"  idxTwo="4"  coef="-1.79"/><qTerm  idx="2"  idxOne="1"  idxTwo="5"  coef=".9945"/><qTerm  idx="2"  idxOne="1"  idxTwo="10"  coef="1.646"/><qTerm  idx="2"  idxOne="1"  idxTwo="11"  coef="-1.2117"/><qTerm  idx="2"  idxOne="1"  idxTwo="14"  coef="1.369"/><qTerm  idx="2"  idxOne="1"  idxTwo="16"  coef="-1.2149"/><qTerm  idx="2"  idxOne="1"  idxTwo="19"  coef="-1.9026"/><qTerm  idx="2"  idxOne="2"  idxTwo="3"  coef="-.4843"/><qTerm  idx="2"  idxOne="2"  idxTwo="5"  coef="-1.8646"/><qTerm  idx="2"  idxOne="2"  idxTwo="7"  coef=".4833"/><qTerm  idx="2"  idxOne="2"  idxTwo="10"  coef="-.4773"/><qTerm  idx="2"  idxOne="2"  idxTwo="12"  coef="-1.3537"/><qTerm  idx="2"  idxOne="2"  idxTwo="14"  coef="1.2891"/><qTerm  idx="2"  idxOne="2"  idxTwo="15"  coef="-.5774"/><qTerm  idx="2"  idxOne="3"  idxTwo="5"  coef="1.9969"/><qTerm  idx="2"  idxOne="3"  idxTwo="14"  coef="1.0736"/><qTerm  idx="2"  idxOne="3"  idxTwo="17"  coef=".1465"/><qTerm  idx="2"  idxOne="3"  idxTwo="18"  coef="-1.58"/><qTerm  idx="2"  idxOne="4"  idxTwo="4"  coef="1.7416"/><qTerm  idx="2"  idxOne="4"  idxTwo="5"  coef="-.2822"/><qTerm  idx="2"  idxOne="4"  idxTwo="7"  coef="-1.6444"/><qTerm  idx="2"  idxOne="4"  idxTwo="13"  coef="-1.4441"/><qTerm  idx="2"  idxOne="4"  idxTwo="17"  coef="-8.1e-2"/><qTerm  idx="2"  idxOne="6"  idxTwo="6"  coef="-1.7041"/><qTerm  idx="2"  idxOne="6"  idxTwo="8"  coef="-.5135"/><qTerm  idx="2"  idxOne="6"  idxTwo="9"  coef="-1.25"/><qTerm  idx="2"  idxOne="6"  idxTwo="14"  coef=".5248"/><qTerm  idx="2"  idxOne="6"  idxTwo="15"  coef="9.77e-2"/><qTerm  idx="2"  idxOne="7"  idxTwo="9"  coef="1.8566"/><qTerm  idx="2"  idxOne="7"  idxTwo="10"  coef="1.5264"/><qTerm  idx="2"  idxOne="7"  idxTwo="11"  coef="-1.1412"/><qTerm  idx="2"  idxOne="7"  idxTwo="12"  coef=".9133"/><qTerm  idx="2"  idxOne="7"  idxTwo="16"  coef="-.9546"/><qTerm  idx="2"  idxOne="7"  idxTwo="18"  coef="1.0433"/><qTerm  idx="2"  idxOne="8"  idxTwo="9"  coef="-1.1983"/><qTerm  idx="2"  idxOne="8"  idxTwo="11"  coef="1.5764"/><qTerm  idx="2"  idxOne="8"  idxTwo="12"  coef="-1.0622"/><qTerm  idx="2"  idxOne="8"  idxTwo="19"  coef="-.8948"/><qTerm  idx="2"  idxOne="9"  idxTwo="14"  coef="-1.4341"/><qTerm  idx="2"  idxOne="10"  idxTwo="12"  coef="-3.55e-2"/><qTerm  idx="2"  idxOne="11"  idxTwo="15"  coef="8.05e-2"/><qTerm  idx="2"  idxOne="11"  idxTwo="17"  coef="-1.1114"/><qTerm  idx="2"  idxOne="12"  idxTwo="14"  coef="4.42e-2"/><qTerm  idx="2"  idxOne="13"  idxTwo="14"  coef="-1.615"/><qTerm  idx="2"  idxOne="13"  idxTwo="15"  coef=".284"/><qTerm  idx="2"  idxOne="14"  idxTwo="17"  coef="-.8044"/><qTerm  idx="2"  idxOne="16"  idxTwo="17"  coef="1.2022"/><qTerm  idx="2"  idxOne="18"  idxTwo="19"  coef=".7363"/><qTerm  idx="3"  idxOne="0"  idxTwo="5"  coef="1.0756"/><qTerm  idx="3"  idxOne="0"  idxTwo="11"  coef="-.2715"/><qTerm  idx="3"  idxOne="0"  idxTwo="12"  coef=".9367"/><qTerm  idx="3"  idxOne="0"  idxTwo="13"  coef="-.1951"/><qTerm  idx="3"  idxOne="1"  idxTwo="9"  coef="1.1552"/><qTerm  idx="3"  idxOne="1"  idxTwo="13"  coef="1.5268"/><qTerm  idx="3"  idxOne="1"  idxTwo="15"  coef="-3.68e-2"/><qTerm  idx="3"  idxOne="1"  idxTwo="16"  coef="-1.6967"/><qTerm  idx="3"  idxOne="1"  idxTwo="19"  coef="-.6452"/><qTerm  idx="3"  idxOne="2"  idxTwo="6"  coef="-.961"/><qTerm  idx="3"  idxOne="2"  idxTwo="8"  coef="-1.6975"/><qTerm  idx="3"  idxOne="2"  idxTwo="11"  coef="6.8e-2"/><qTerm  idx="3"  idxOne="2"  idxTwo="14"  coef="-.5934"/><qTerm  idx="3"  idxOne="3"  idxTwo="6"  coef=".816"/><qTerm  idx="3"  idxOne="3"  idxTwo="9"  coef="-4.39e-2"/><qTerm  idx="3"  idxOne="3"  idxTwo="16"  coef=".2156"/><qTerm  idx="3"  idxOne="3"  idxTwo="17"  coef=".4846"/><qTerm  idx="3"  idxOne="4"  idxTwo="5"  coef="-.6318"/><qTerm  idx="3"  idxOne="4"  idxTwo="8"  coef="1.2849"/><qTerm  idx="3"  idxOne="4"  idxTwo="14"  coef="-.5381"/><qTerm  idx="3"  idxOne="4"  idxTwo="19"  coef=".3521"/><qTerm  idx="3"  idxOne="5"  idxTwo="9"  coef=".4291"/><qTerm  idx="3"  idxOne="6"  idxTwo="10"  coef="-5.39e-2"/><qTerm  idx="3"  idxOne="6"  idxTwo="11"  coef="-.3175"/><qTerm  idx="3"  idxOne="6"  idxTwo="13"  coef="1.6705"/><qTerm  idx="3"  idxOne="6"  idxTwo="14"  coef="-1.5327"/><qTerm  idx="3"  idxOne="6"  idxTwo="17"  coef=".4177"/><qTerm  idx="3"  idxOne="6"  idxTwo="18"  coef="1.9647"/><qTerm  idx="3"  idxOne="7"  idxTwo="8"  coef=".5044"/><qTerm  idx="3"  idxOne="7"  idxTwo="11"  coef="-.7283"/><qTerm  idx="3"  idxOne="7"  idxTwo="12"  coef="1.5223"/><qTerm  idx="3"  idxOne="7"  idxTwo="13"  coef="-.9697"/><qTerm  idx="3"  idxOne="7"  idxTwo="16"  coef="1.09e-2"/><qTerm  idx="3"  idxOne="8"  idxTwo="9"  coef="-1.5603"/><qTerm  idx="3"  idxOne="8"  idxTwo="11"  coef="1.1111"/><qTerm  idx="3"  idxOne="8"  idxTwo="14"  coef="-1.8319"/><qTerm  idx="3"  idxOne="9"  idxTwo="14"  coef="-.7956"/><qTerm  idx="3"  idxOne="9"  idxTwo="18"  coef="-1.9951"/><qTerm  idx="3"  idxOne="10"  idxTwo="12"  coef="1.2308"/><qTerm  idx="3"  idxOne="10"  idxTwo="13"  coef="1.1905"/><qTerm  idx="3"  idxOne="10"  idxTwo="14"  coef="1.3445"/><qTerm  idx="3"  idxOne="10"  idxTwo="18"  coef="-.6441"/><qTerm  idx="3"  idxOne="10"  idxTwo="19"  coef=".9541"/><qTerm  idx="3"  idxOne="11"  idxTwo="15"  coef="-1.0312"/><qTerm  idx="3"  idxOne="11"  idxTwo="17"  coef="-1.7827"/><qTerm  idx="3"  idxOne="12"  idxTwo="14"  coef="1.8304"/><qTerm  idx="3"  idxOne="12"  idxTwo="18"  coef="-1.6907"/><qTerm  idx="3"  idxOne="12"  idxTwo="19"  coef=".7342"/><qTerm  idx="3"  idxOne="13"  idxTwo="19"  coef="-.9223"/><qTerm  idx="3"  idxOne="14"  idxTwo="14"  coef="-1.3326"/><qTerm  idx="3"  idxOne="15"  idxTwo="19"  coef="4.65e-2"/><qTerm  idx="3"  idxOne="16"  idxTwo="17"  coef=".108"/></quadraticCoefficients></instanceData></osil>
